data;

param num_top:=2;

#nodes and edges of the physical network
param n := 10;

set E := (1,2) (1,3) (1,7) (2,4) (2,7) (3,5) (4,8) (5,6) (5,7) (6,7) (6,9) (7,8) (7,9) (8,10) (9,10) ;

#nodes and edges of the virtual networks
set Nl[1] := 5 4 2 3 ;
set Nl[2] := 10 9 5 6 ;

set El[1] := (4,5) (2,4) (2,3) (3,5) ;
set El[2] := (9,10) (5,9) (5,6) (6,10) ;
